
;this file is automatically generated: Tue May 22 12:32:45 IST 2018

;declarations generated

(declare-fun S0 () Int)
(declare-fun S1 () Int)
(declare-fun S2 () Int)
(declare-fun S3 () Int)

;formula(s) generated
(assert (and (>= S0 0) (<= S0 2)))
(assert (and (>= S1 0) (<= S1 2)))
(assert (and (>= S2 0) (<= S2 2)))
(assert (and (>= S3 0) (<= S3 2)))
(assert (= S0 0))
(assert (and (and (or (not (= S0 0) ) (not (= S1 2) )) (or (not (= S1 0) ) (not (= S2 2) ))) (or (not (= S2 0) ) (not (= S3 2) ))))
(assert (and (and (or (not (= S0 1) ) (not (= S1 0) )) (or (not (= S1 1) ) (not (= S2 0) ))) (or (not (= S2 1) ) (not (= S3 0) ))))
(assert (and (and (or (not (= S0 1) ) (not (= S1 1) )) (or (not (= S1 1) ) (not (= S2 1) ))) (or (not (= S2 1) ) (not (= S3 1) ))))
(assert (and (and (or (not (= S0 2) ) (not (= S1 0) )) (or (not (= S1 2) ) (not (= S2 0) ))) (or (not (= S2 2) ) (not (= S3 0) ))))
(assert (and (and (or (not (= S0 2) ) (not (= S1 2) )) (or (not (= S1 2) ) (not (= S2 2) ))) (or (not (= S2 2) ) (not (= S3 2) ))))
(assert (= S3 2))

 ;end of formula 
(assert (not (and (and (and (= S0 0) (= S1 0)) (= S2 1)) (= S3 2)) ))
